<?xml version = "1.0" standalone="yes"?>
<!-- This file has been generated by DOcplex version 2.23.222  -->
<CPLEXSolution version="1.0">
 <header
   problemName="CVRP"
   objectiveValue="9889.09"
  />
 <variables>
  <variable name="x_0_3" index="2" value="1.00000"/>
  <variable name="x_0_4" index="3" value="1.00000"/>
  <variable name="x_0_5" index="4" value="1.00000"/>
  <variable name="x_0_7" index="6" value="1.00000"/>
  <variable name="x_0_8" index="7" value="1.00000"/>
  <variable name="x_0_10" index="9" value="1.00000"/>
  <variable name="x_0_11" index="10" value="1.00000"/>
  <variable name="x_0_12" index="11" value="1.00000"/>
  <variable name="x_0_15" index="14" value="1.00000"/>
  <variable name="x_0_18" index="17" value="1.00000"/>
  <variable name="x_0_19" index="18" value="1.00000"/>
  <variable name="x_1_9" index="29" value="1.00000"/>
  <variable name="x_2_0" index="42" value="1.00000"/>
  <variable name="x_3_20" index="82" value="1.00000"/>
  <variable name="x_4_21" index="104" value="1.00000"/>
  <variable name="x_5_0" index="105" value="1.00000"/>
  <variable name="x_6_0" index="126" value="1.00000"/>
  <variable name="x_7_0" index="147" value="1.00000"/>
  <variable name="x_8_0" index="168" value="1.00000"/>
  <variable name="x_9_0" index="189" value="1.00000"/>
  <variable name="x_10_16" index="225" value="1.00000"/>
  <variable name="x_11_0" index="231" value="1.00000"/>
  <variable name="x_12_2" index="254" value="1.00000"/>
  <variable name="x_13_0" index="273" value="1.00000"/>
  <variable name="x_14_17" index="310" value="1.00000"/>
  <variable name="x_15_13" index="328" value="1.00000"/>
  <variable name="x_16_0" index="336" value="1.00000"/>
  <variable name="x_17_0" index="357" value="1.00000"/>
  <variable name="x_18_14" index="392" value="1.00000"/>
  <variable name="x_19_6" index="405" value="1.00000"/>
  <variable name="x_20_0" index="420" value="1.00000"/>
  <variable name="x_21_1" index="442" value="1.00000"/>
  <variable name="u_1" index="462" value="49.00000"/>
  <variable name="u_2" index="463" value="63.00000"/>
  <variable name="u_3" index="464" value="32.00000"/>
  <variable name="u_4" index="465" value="24.00000"/>
  <variable name="u_5" index="466" value="63.00000"/>
  <variable name="u_6" index="467" value="53.00000"/>
  <variable name="u_7" index="468" value="54.00000"/>
  <variable name="u_8" index="469" value="58.00000"/>
  <variable name="u_9" index="470" value="55.00000"/>
  <variable name="u_10" index="471" value="38.00000"/>
  <variable name="u_11" index="472" value="63.00000"/>
  <variable name="u_12" index="473" value="39.00000"/>
  <variable name="u_13" index="474" value="51.00000"/>
  <variable name="u_14" index="475" value="40.00000"/>
  <variable name="u_15" index="476" value="38.00000"/>
  <variable name="u_16" index="477" value="43.00000"/>
  <variable name="u_17" index="478" value="63.00000"/>
  <variable name="u_18" index="479" value="2.00000"/>
  <variable name="u_19" index="480" value="21.00000"/>
  <variable name="u_20" index="481" value="63.00000"/>
  <variable name="u_21" index="482" value="47.00000"/>
 </variables>
</CPLEXSolution>
